Maximize
 obj: 9 x1 + 5 x2 + 6 x3 + 4 x4
Subject To
 c1: 6 x1 + 3 x2 + 5 x3 + 2 x4 <= 10
 c2: x3 + x4 <= 1
 c3: -1 x1 + x3 <= 0
 c4: -1 x2 + x4 <= 0
Bounds
 0 <= x1 <= 1
 0 <= x2 <= 1
 0 <= x3 <= 1
 0 <= x4 <= 1
End
